HUN,8,6,231
5,25,4,8,3,27,0,25,2,18,1,4
1,1,5,30,2,16,0,9,4,29,3,8
3,4,2,25,1,23,4,16,0,1,5,24
2,23,5,20,3,20,4,27,0,11,1,13
0,14,5,26,2,11,4,8,3,9,1,9
2,3,3,27,4,28,0,29,5,24,1,7
1,16,2,27,0,27,5,20,3,18,4,7
5,2,3,3,0,15,2,3,1,23,4,13
